#pLT is two-dimensional [i,r]=[component, individual]
#[i,*] means all data in row i.

param pLT := 
[1,*]
1  0    2  6    3  7    4  6    5  4    6  6    

[2,*]
1  3    2  5    3  4    4  3    5  5    6  4    
;